
******************************************************************************
This program contains Ipopt, a library for large-scale nonlinear optimization.
 Ipopt is released as open source code under the Eclipse Public License (EPL).
         For more information visit http://projects.coin-or.org/Ipopt

This version of Ipopt was compiled from source code available at
    https://github.com/IDAES/Ipopt as part of the Institute for the Design of
    Advanced Energy Systems Process Systems Engineering Framework (IDAES PSE
    Framework) Copyright (c) 2018-2019. See https://github.com/IDAES/idaes-pse.

This version of Ipopt was compiled using HSL, a collection of Fortran codes
    for large-scale scientific computation.  All technical papers, sales and
    publicity material resulting from use of the HSL codes within IPOPT must
    contain the following acknowledgement:
        HSL, a collection of Fortran codes for large-scale scientific
        computation. See http://www.hsl.rl.ac.uk.
******************************************************************************

This is Ipopt version 3.13.2, running with linear solver ma27.

Number of nonzeros in equality constraint Jacobian...:     1210
Number of nonzeros in inequality constraint Jacobian.:        0
Number of nonzeros in Lagrangian Hessian.............:     1376

Total number of variables............................:      480
                     variables with only lower bounds:      128
                variables with lower and upper bounds:      288
                     variables with only upper bounds:        0
Total number of equality constraints.................:      477
Total number of inequality constraints...............:        0
        inequality constraints with only lower bounds:        0
   inequality constraints with lower and upper bounds:        0
        inequality constraints with only upper bounds:        0

iter    objective    inf_pr   inf_du lg(mu)  ||d||  lg(rg) alpha_du alpha_pr  ls
   0  0.0000000e+00 1.43e-01 2.82e-14  -1.0 0.00e+00    -  0.00e+00 0.00e+00   0
   1  1.1601248e+01 9.29e-02 2.02e+06  -1.0 3.24e+05    -  2.66e-01 9.90e-01h  1
   2  1.5176114e+01 8.18e-02 1.77e+06  -1.0 1.12e+06    -  4.86e-01 1.24e-01h  4
   3  1.7547504e+01 6.57e-02 1.86e+08  -1.0 4.37e+05  -4.0 6.53e-01 9.90e-01h  1
   4  2.1964081e+01 6.05e-02 1.34e+08  -1.0 1.09e+06  -3.6 4.28e-01 1.20e-01h  3
   5  2.4700789e+01 6.43e-02 1.27e+08  -1.0 2.06e+06  -4.1 5.20e-01 4.15e-02h  4
   6  2.7718526e+01 6.80e-02 1.23e+08  -1.0 1.79e+06  -3.6 5.60e-01 3.84e-02h  4
   7  3.0789065e+01 7.18e-02 1.23e+08  -1.0 1.65e+06  -3.2 7.46e-01 3.56e-02h  4
   8  3.1541726e+01 7.15e-02 1.22e+08  -1.0 1.77e+06  -3.7 9.86e-01 9.74e-03h  6
   9  3.1943655e+01 7.13e-02 1.21e+08  -1.0 1.58e+06  -3.3 9.90e-01 4.58e-03h  7
iter    objective    inf_pr   inf_du lg(mu)  ||d||  lg(rg) alpha_du alpha_pr  ls
  10  3.2654635e+01 7.07e-02 1.22e+08  -1.0 1.75e+06  -3.7 2.07e-01 8.63e-03h  7
  11  3.5282416e+01 6.95e-02 1.31e+08  -1.0 1.55e+06  -3.3 7.62e-01 2.15e-02h  6
  12  3.7855355e+01 6.81e-02 1.53e+08  -1.0 1.36e+06  -2.9 8.84e-01 2.16e-02h  6
  13  4.0264028e+01 6.68e-02 2.62e+08  -1.0 1.30e+06  -2.4 9.96e-01 2.16e-02h  6
  14  1.7936321e+02 3.50e+00 3.25e+11  -1.0 1.25e+06  -2.0 1.00e+00 6.91e-01w  1
  15  1.5389305e+02 2.10e+00 6.25e+11  -1.0 2.83e+05  -0.7 2.14e-01 9.90e-01w  1
  16  1.2476753e+02 1.52e+01 2.01e+12  -1.0 3.74e+06    -  2.20e-01 2.04e-01w  1
  17  4.4830026e+01 6.45e-02 1.80e+09  -1.0 1.55e+05   0.6 1.00e+00 4.32e-02h  4
  18  4.8985745e+01 6.20e-02 1.49e+11  -1.0 1.12e+06   0.2 1.00e+00 4.54e-02h  5
  19  5.2125939e+01 5.72e-02 1.12e+11  -1.0 1.18e+06  -0.3 1.00e+00 8.08e-02h  4
iter    objective    inf_pr   inf_du lg(mu)  ||d||  lg(rg) alpha_du alpha_pr  ls
  20  4.6849740e+01 5.55e-02 9.75e+10  -1.0 2.47e+06  -0.8 5.03e-01 4.36e-02f  4
  21  5.1316066e+01 4.90e-02 2.88e+11  -1.0 5.31e+05   0.5 7.89e-01 1.24e-01h  4
  22  5.5762621e+01 3.90e-02 1.57e+11  -1.0 3.20e+05   0.1 7.55e-01 2.47e-01h  3
  23  5.8903675e+01 6.88e-02 1.00e+12  -1.0 3.27e+05  -0.4 1.00e+00 9.90e-01h  1
  24  5.0914164e+01 3.31e-02 2.49e+11  -1.0 1.11e+05   0.0 7.41e-01 9.90e-01h  1
  25  5.1212073e+01 5.57e-04 7.81e+09  -1.0 1.30e+04  -0.5 1.00e+00 9.90e-01h  1
  26  5.1240475e+01 5.52e-06 3.03e+09  -1.0 3.48e+02  -1.0 1.00e+00 9.90e-01h  1
  27  5.1240724e+01 5.52e-08 3.01e+11  -1.0 3.04e+00  -1.4 1.00e+00 9.90e-01h  1
In iteration 27, 32 Slacks too small, adjusting variable bounds
  28  5.1240726e+01 8.47e-09 3.01e+13  -1.0 3.00e-02  -1.9 1.00e+00 9.90e-01h  1
  29  5.1240726e+01 7.49e-09 2.11e-01  -1.0 1.01e-02  -2.4 1.00e+00 1.00e+00h  1
iter    objective    inf_pr   inf_du lg(mu)  ||d||  lg(rg) alpha_du alpha_pr  ls
  30  5.1239725e+01 7.89e-09 1.78e+13  -9.0 1.21e+06    -  5.80e-01 1.39e-05f 17
  31  5.1237721e+01 7.36e-10 2.56e+13  -9.0 1.22e+06    -  6.06e-01 2.75e-05f 16
  32  5.1237220e+01 2.02e-09 2.88e+13  -9.0 1.22e+06    -  6.19e-01 6.87e-06f 18
  33  5.1236719e+01 1.61e-09 3.00e+13  -9.0 1.22e+06    -  6.26e-01 6.87e-06f 18
  34  5.1236687e+01 2.75e-10 3.04e+13  -9.0 1.22e+06    -  6.37e-01 4.29e-07f 22
  35  4.0364308e+01 1.29e+01 1.57e+13  -9.0 1.22e+06    -  6.62e-01 9.00e-01f  1
  36  4.0364308e+01 1.13e+01 7.34e+18  -9.0 5.07e-01  11.9 6.07e-01 6.13e-03h  1
  37  4.0364308e+01 1.15e+01 1.44e+21  -9.0 8.42e-03  13.6 6.50e-09 6.18e-01H  1
Scaling factors are invalid - setting them all to 1.
MA27BD returned iflag=-4 and requires more memory.
 Increase liw from 19240 to 38480 and la from 22500 to 45088 and factorize again.
Scaling factors are invalid - setting them all to 1.
Scaling factors are invalid - setting them all to 1.
Scaling factors are invalid - setting them all to 1.
Scaling factors are invalid - setting them all to 1.
Scaling factors are invalid - setting them all to 1.
Scaling factors are invalid - setting them all to 1.
Scaling factors are invalid - setting them all to 1.
Scaling factors are invalid - setting them all to 1.
Scaling factors are invalid - setting them all to 1.
WARNING: Problem in step computation; switching to emergency mode.
  38r 4.0364308e+01 1.15e+01 1.00e+03   1.1 0.00e+00  19.5 0.00e+00 0.00e+00R  1
  39r 4.0364217e+01 1.15e+01 9.96e+02   1.1 1.15e+04    -  7.60e-03 9.90e-04f  1
iter    objective    inf_pr   inf_du lg(mu)  ||d||  lg(rg) alpha_du alpha_pr  ls
  40r 4.0364193e+01 1.29e+01 6.55e+06   1.1 1.44e+03    -  2.31e-03 4.18e-03f  1
  41r 4.0364174e+01 4.65e-01 9.87e+02   1.1 1.83e+02    -  6.13e-03 7.38e-03f  1
  42  3.7324007e+01 3.26e+02 1.89e+20  -9.0 5.80e+13    -  3.32e-10 1.07e-09f  1
  43  3.7324007e+01 3.23e+02 2.94e+15  -9.0 3.37e-03  17.5 1.83e-04 1.00e+00H  1
  44  3.7324007e+01 3.12e+02 4.39e+15  -9.0 3.94e-02  17.0 9.82e-01 1.00e+00h  1
  45  3.7290172e+01 2.17e+02 1.13e+28  -9.0 2.85e+06  16.6 7.64e-10 2.36e-04h  1
  46r 3.7290172e+01 2.17e+02 9.99e+02   2.3 0.00e+00  16.1 0.00e+00 1.30e-12R  2
  47r 3.7290179e+01 6.44e+00 9.98e+02   2.3 6.36e+05    -  7.00e-04 3.48e-04f  1
  48  3.5211089e+01 1.52e+02 8.46e+00  -9.0 1.11e+06    -  6.75e-02 4.06e-02F  1
  49  3.3797576e+01 1.45e+02 7.85e+03  -9.0 3.49e+06    -  1.61e-04 4.39e-02f  1
In iteration 49, 1 Slack too small, adjusting variable bound
iter    objective    inf_pr   inf_du lg(mu)  ||d||  lg(rg) alpha_du alpha_pr  ls
  50  3.3796673e+01 1.45e+02 7.85e+03  -9.0 1.90e+06    -  9.00e-02 1.65e-05h  1
  51  3.3232343e+01 1.27e+02 6.85e+03  -9.0 1.90e+06    -  1.70e-05 1.25e-01f  4
  52  3.6520316e+01 1.22e+02 6.60e+03  -9.0 1.64e+06    -  3.91e-01 3.71e-02h  5
  53  3.7168266e+01 1.21e+02 6.55e+03  -9.0 1.70e+06    -  2.96e-01 7.81e-03h  8
  54  3.7252279e+01 1.21e+02 6.54e+03  -9.0 1.71e+06    -  2.72e-01 9.77e-04h 11
  55  3.7273386e+01 1.21e+02 6.54e+03  -9.0 1.71e+06    -  4.11e-01 2.44e-04h 13
  56  4.0651897e+02 6.70e+01 9.47e+03  -9.0 1.71e+06    -  2.24e-01 1.00e+00h  1
  57  4.0651897e+02 6.70e+01 3.45e+10  -9.0 4.63e-02  15.6 3.21e-09 1.81e-04h  1
  58r 4.0651897e+02 6.70e+01 9.99e+02   1.8 0.00e+00    -  0.00e+00 2.43e-08R  2
  59r 4.0651900e+02 6.60e+01 1.48e+03   1.8 4.02e+05    -  3.65e-05 2.86e-06f  1
iter    objective    inf_pr   inf_du lg(mu)  ||d||  lg(rg) alpha_du alpha_pr  ls
  60r 4.0651825e+02 3.60e+01 1.45e+03   1.1 9.55e+03    -  4.87e-04 3.63e-03f  1
  61  3.3011091e+02 2.88e+01 5.88e+03  -9.0 4.94e+06    -  1.03e-02 2.66e-01f  1
  62  3.3011091e+02 9.54e+00 7.56e+12  -9.0 2.26e-02  14.7 7.43e-01 1.00e+00h  1
  63r 3.3011091e+02 9.54e+00 9.99e+02   1.0 0.00e+00  14.2 0.00e+00 5.22e-10R  4
  64r 3.3011036e+02 3.14e+00 9.96e+02   1.0 6.22e+03    -  4.39e-03 1.52e-03f  1
  65  1.3514695e+02 6.45e+01 3.22e+11  -9.0 2.33e+06    -  4.54e-01 7.72e-01f  1
  66  1.2911907e+02 4.01e+01 1.01e+25  -9.0 2.08e+05  13.7 1.06e-03 1.00e+00f  1
Scaling factors are invalid - setting them all to 1.
Scaling factors are invalid - setting them all to 1.
  67  1.3125864e+02 1.70e+01 1.01e+29  -9.0 2.02e+05  13.2 4.28e-01 1.00e+00h  1
Scaling factors are invalid - setting them all to 1.
Scaling factors are invalid - setting them all to 1.
Scaling factors are invalid - setting them all to 1.
Scaling factors are invalid - setting them all to 1.
Scaling factors are invalid - setting them all to 1.
Scaling factors are invalid - setting them all to 1.
Scaling factors are invalid - setting them all to 1.
Scaling factors are invalid - setting them all to 1.
Scaling factors are invalid - setting them all to 1.
Scaling factors are invalid - setting them all to 1.
Scaling factors are invalid - setting them all to 1.
Scaling factors are invalid - setting them all to 1.
WARNING: Problem in step computation; switching to emergency mode.
  68r 1.3125864e+02 1.70e+01 9.99e+02   1.2 0.00e+00  19.5 0.00e+00 0.00e+00R  1
  69r 1.3125865e+02 1.69e+01 9.99e+02   1.2 5.69e+03    -  1.87e-05 1.34e-05f  8
iter    objective    inf_pr   inf_du lg(mu)  ||d||  lg(rg) alpha_du alpha_pr  ls
  70r 1.3125858e+02 6.97e+01 1.91e+03   1.2 1.86e+04    -  1.55e-03 9.00e-04f  1
  71r 1.3125858e+02 9.83e+00 5.22e+10   1.2 1.75e+03   0.0 1.25e-02 3.20e-03f  1
  72  1.3125844e+02 1.62e+01 1.87e+09  -9.0 9.93e+10    -  2.36e-09 6.43e-10f  3
  73  1.3705646e+02 1.09e+01 1.53e+16  -9.0 1.96e+08    -  2.47e-04 2.08e-03h  2
WARNING: Problem in step computation; switching to emergency mode.
  74r 1.3705646e+02 1.09e+01 9.99e+02   1.0 0.00e+00  20.0 0.00e+00 0.00e+00R  1
  75r 1.3705646e+02 9.84e+00 1.27e+10   1.0 1.07e+04    -  7.28e-02 9.99e-04f  1
  76r 1.3705652e+02 1.09e+01 3.92e+04   1.0 1.60e+02  -4.0 3.74e-02 7.23e-02f  1
  77r 1.3705677e+02 1.19e+01 1.89e+04   1.0 5.50e+02    -  4.20e-01 4.47e-02f  1
  78r 1.3705680e+02 1.05e+01 3.06e+05   1.0 3.89e+02    -  3.89e-01 2.02e-02f  1
  79r 1.3705681e+02 9.83e+00 1.64e+12   1.0 1.87e+02    -  3.75e-02 1.24e-02f  1
iter    objective    inf_pr   inf_du lg(mu)  ||d||  lg(rg) alpha_du alpha_pr  ls
  80r 1.3705676e+02 9.83e+00 8.22e+12   1.0 3.73e+01  -3.1 1.47e-02 5.45e-01f  1
  81r 1.3705676e+02 1.40e+01 2.95e+14   1.0 3.36e+00   1.3 1.79e-01 9.99e-01f  1
  82r 1.3705676e+02 1.40e+01 3.77e+20   1.0 4.15e-05  14.7 1.00e+00 1.00e+00h  1
Scaling factors are invalid - setting them all to 1.
Scaling factors are invalid - setting them all to 1.
Scaling factors are invalid - setting them all to 1.
Scaling factors are invalid - setting them all to 1.
Scaling factors are invalid - setting them all to 1.
Scaling factors are invalid - setting them all to 1.
Scaling factors are invalid - setting them all to 1.
Scaling factors are invalid - setting them all to 1.
Scaling factors are invalid - setting them all to 1.
Scaling factors are invalid - setting them all to 1.
Scaling factors are invalid - setting them all to 1.
Scaling factors are invalid - setting them all to 1.
Scaling factors are invalid - setting them all to 1.
Scaling factors are invalid - setting them all to 1.
Scaling factors are invalid - setting them all to 1.
Scaling factors are invalid - setting them all to 1.
Scaling factors are invalid - setting them all to 1.
Scaling factors are invalid - setting them all to 1.
Scaling factors are invalid - setting them all to 1.
Scaling factors are invalid - setting them all to 1.
Scaling factors are invalid - setting them all to 1.
WARNING: Problem in step computation; switching to emergency mode.
  83r 1.3705676e+02 1.40e+01 3.77e+20   1.0 4.15e-05  20.0 0.00e+00 0.00e+00R  1
Scaling factors are invalid - setting them all to 1.
Scaling factors are invalid - setting them all to 1.
Scaling factors are invalid - setting them all to 1.
Scaling factors are invalid - setting them all to 1.
Scaling factors are invalid - setting them all to 1.
Scaling factors are invalid - setting them all to 1.
Scaling factors are invalid - setting them all to 1.
Scaling factors are invalid - setting them all to 1.
Scaling factors are invalid - setting them all to 1.
Scaling factors are invalid - setting them all to 1.
Scaling factors are invalid - setting them all to 1.
Scaling factors are invalid - setting them all to 1.
Scaling factors are invalid - setting them all to 1.
Scaling factors are invalid - setting them all to 1.
WARNING: Problem in step computation; switching to emergency mode.
Restoration phase is called at point that is almost feasible,
  with constraint violation 0.000000e+00. Abort.
Restoration phase in the restoration phase failed.

Number of Iterations....: 83

                                   (scaled)                 (unscaled)
Objective...............:   1.3705676353176722e+02    1.3705676353176722e+02
Dual infeasibility......:   3.7716398019093109e+20    3.7716398019093109e+20
Constraint violation....:   1.4005678101737987e+01    1.4005678101737987e+01
Complementarity.........:   1.0918953128693229e+01    1.0918953128693229e+01
Overall NLP error.......:   5.3832251800319464e+16    3.7716398019093109e+20


Number of objective function evaluations             = 323
Number of objective gradient evaluations             = 68
Number of equality constraint evaluations            = 323
Number of inequality constraint evaluations          = 0
Number of equality constraint Jacobian evaluations   = 87
Number of inequality constraint Jacobian evaluations = 0
Number of Lagrangian Hessian evaluations             = 84
Total CPU secs in IPOPT (w/o function evaluations)   =      0.348
Total CPU secs in NLP function evaluations           =      2.399

EXIT: Restoration Failed!
